Rooms/2nwall22-1.dzn
n = 22;

w =
[|0,7,0,0,0,0,3,3,3,0,0,0,2,2,0,10,0,0,0,0,0,0,
 |0,7,6,3,3,3,0,0,0,0,0,0,0,0,0,10,0,0,0,11,0,0,
 |0,7,6,5,0,0,0,0,0,0,0,0,0,0,0,10,0,0,0,11,2,0,
 |0,7,6,5,6,0,0,5,5,5,5,5,0,0,0,10,0,0,0,11,2,0,
 |0,7,6,5,6,0,5,5,5,5,5,0,0,2,0,10,1,0,10,11,0,0,
 |0,7,6,5,6,8,8,8,8,8,8,8,8,2,0,10,0,0,10,11,8,5,
 |0,7,6,5,6,0,0,0,0,0,0,0,0,0,0,10,0,0,10,11,8,5,
 |9,0,0,0,6,0,0,0,0,0,0,0,0,0,0,10,0,0,10,11,8,5,
 |9,0,0,0,6,0,0,0,0,0,4,4,4,4,0,10,0,0,10,11,8,5,
 |9,0,0,8,8,8,8,8,8,8,8,0,0,0,0,10,0,0,10,11,8,5,
 |9,3,3,3,0,0,0,0,0,0,0,0,0,0,0,2,2,0,10,11,8,0,
 |9,10,10,10,10,10,10,10,10,10,10,0,0,0,0,0,0,0,10,11,8,0,
 |9,0,0,3,0,2,2,11,11,11,11,11,11,11,11,11,11,11,10,0,8,0,
 |9,0,0,3,0,0,0,0,0,0,0,0,0,0,0,0,0,0,10,0,0,2,
 |9,0,0,3,0,0,0,7,0,0,0,3,3,3,0,0,0,0,0,0,0,2,
 |9,3,0,6,0,0,1,7,0,0,0,0,0,0,0,0,0,0,1,5,0,0,
 |0,3,0,6,0,0,0,7,0,2,0,2,2,2,0,1,0,0,0,5,0,0,
 |0,3,0,6,0,0,0,7,0,2,0,2,0,0,0,0,0,0,0,5,0,0,
 |0,0,0,6,0,0,0,7,0,3,3,3,3,3,3,0,0,0,0,5,0,0,
 |0,0,0,6,0,0,0,7,0,0,0,0,0,0,0,0,0,0,2,5,0,0,
 |0,0,0,6,0,0,0,7,0,0,0,0,0,0,0,0,0,0,2,0,0,0,
 |0,0,0,0,0,1,0,0,0,0,0,3,3,3,0,0,0,0,0,0,0,0,
 |];

