Walks/2nwall22-1.txt
% Generated FlatZinc statistics:
%%%mzn-stat: paths=0
%%%mzn-stat: evaluatedReifiedConstraints=2810
%%%mzn-stat: method="satisfy"
%%%mzn-stat: flatTime=0.326266
%%%mzn-stat-end
=====UNSATISFIABLE=====
